m = 20;
n = 30;
lm = [1, 2, 3, 3, 3, 2, 1, 1, 2, 3, 3, 3, 2, 3, 1, 1, 1, 2, 1, 1];
um = [1, 8, 5, 7, 6, 4, 7, 3, 2, 3, 6, 5, 8, 9, 3, 2, 5, 3, 5, 2];
lp = [1, 3, 3, 1, 3, 1, 1, 1, 1, 1, 1, 3, 1, 3, 1, 2, 3, 2, 3, 2, 2, 1, 3, 1, 2, 1, 1, 3, 2, 1];
up = [8, 3, 5, 3, 6, 4, 7, 3, 2, 3, 6, 5, 8, 9, 3, 5, 5, 3, 5, 7, 6, 3, 1, 6, 7, 4, 5, 8, 5, 6];